100 2 100
41 98 43 40 21 36 26 58 99 26 15 3 64 35 39 35 63 10 47 39 23 95 77 85 4 88 46 50 86 76 4 27 26 47 20 83 98 58 35 77 74 90 41 9 30 28 24 40 27 63 15 23 40 53 79 80 99 29 66 27 34 46 5 33 18 5 17 16 16 4 45 90 94 86 51 76 67 27 68 94 43 84 17 35 37 49 16 88 78 82 67 64 80 72 98 98 30 67 67 46 
